
Gurobi 6.0.4 (win64) logging started 06/18/15 16:07:37

Read LP format model from file C:\MT\repository\VRPTWMS\instances\mip\freight\N4-C_DV10-C_SV50_F10_0_No_1.lp
Reading time = 0.00 seconds
(null): 113 rows, 81 columns, 399 nonzeros
Optimize a model with 113 rows, 81 columns and 399 nonzeros
Model has 100 quadratic constraints
Coefficient statistics:
  Matrix range    [1e+00, 1e+06]
  Objective range [7e+04, 1e+07]
  Bounds range    [1e+00, 1e+06]
  RHS range       [1e+00, 1e+06]
Presolve removed 31 rows and 15 columns
Presolve time: 0.00s
Presolved: 328 rows, 197 columns, 1281 nonzeros
Variable types: 115 continuous, 82 integer (55 binary)
Found heuristic solution: objective 2.104970e+07

Root relaxation: objective 1.100410e+07, 43 iterations, 0.00 seconds

    Nodes    |    Current Node    |     Objective Bounds      |     Work
 Expl Unexpl |  Obj  Depth IntInf | Incumbent    BestBd   Gap | It/Node Time

     0     0 1.1004e+07    0   14 2.1050e+07 1.1004e+07  47.7%     -    0s
     0     0 1.1144e+07    0    9 2.1050e+07 1.1144e+07  47.1%     -    0s
     0     0 1.1145e+07    0   25 2.1050e+07 1.1145e+07  47.1%     -    0s
     0     0 1.1145e+07    0   31 2.1050e+07 1.1145e+07  47.1%     -    0s
     0     0 1.1145e+07    0   26 2.1050e+07 1.1145e+07  47.1%     -    0s
     0     0 1.1145e+07    0   29 2.1050e+07 1.1145e+07  47.1%     -    0s
     0     0 1.1145e+07    0   29 2.1050e+07 1.1145e+07  47.1%     -    0s
     0     2 1.1145e+07    0   29 2.1050e+07 1.1145e+07  47.1%     -    0s
*   13     0               8    2.099600e+07 1.1158e+07  46.9%  27.4    0s

Cutting planes:
  Gomory: 1
  Implied bound: 8
  Clique: 6
  MIR: 13

Explored 17 nodes (659 simplex iterations) in 0.05 seconds
Thread count was 2 (of 4 available processors)

Optimal solution found (tolerance 1.00e-04)
Best objective 2.099599999999e+07, best bound 2.099599999999e+07, gap 0.0%
k_c1	80000.00000000001
k_c2	60000.00000000003
k_c3	100000.0
k_c4	50000.0
k_dN	-0.0
kDash_c1	60000.00000000003
kDash_c2	10000.00000000003
kDash_c3	80000.0
kDash_c4	-0.0
o_1	0.0
o_2	0.0
o_3	0.0
o_4	0.0
p_1	0.0
p_2	-0.0
p_3	0.0
p_4	0.0
phi_c1	85008.0
phi_c2	17529.00000001849
phi_c3	95129.99999999997
phi_c4	19020.0
phi_d0	100000.0
phi_dN	-0.0
pi_c1	0.0
pi_c2	-0.0
pi_c3	-0.0
pi_c4	-0.0
pi_dN	-0.0
tauD_c1	400000.0
tauD_c2	500625.0
tauD_c3	100000.0
tauD_c4	650000.0
tauD_d0	-0.0
tauD_dN	1000000.0
tauS_c1	0.0
tauS_c2	889800.0
tauS_c3	0.0
tauS_c4	70350.0
tauS_d0	-0.0
tauS_dN	72175.0
x_c1_c2	1.0
x_c2_dN	0.9999999999993449
x_c3_c1	1.0
x_c4_dN	1.0
x_d0_c3	1.0
x_d0_c4	0.9999999999993449
